/* Objective function */
max: ;

/* Constraints */
R1: +x37 <= 0;
+x11 +x40 +x41 <= 0;
R3: +x38 <= 0;
R4: +x39 <= 0;
R5: +x12 <= 0;
R6: +x13 <= 0;
R7: +x14 <= 0;
R8: +x9 <= 0;
+x42 +x43 <= 0;
R10: +x9 <= 0;
R11: +x15 <= 0;
R12: +x16 <= 0;
R13: +x3 <= 0;
R14: +x4 <= 0;
R15: +x17 <= 0;
R16: +x18 <= 0;
R17: +x19 <= 0;
+x44 +x46 <= 0;
R19: +x19 <= 0;
R20: +x45 <= 0;
R21: +x47 <= 0;
R22: +x20 <= 0;
R23: +x5 <= 0;
R24: +x2 <= 0;
R25: +x6 <= 0;
R26: +x6 <= 0;
R27: +x7 <= 0;
R28: +x1 <= 0;
R29: +x1 <= 0;
R30: +x8 <= 0;
R31: +x9 <= 0;
R32: +x1 <= 0;
R33: +x12 <= 0;
R34: +x14 <= 0;
R35: +x13 <= 0;
R36: +x5 <= 0;
R37: +x7 <= 0;
R38: +x3 <= 0;
R39: +x4 <= 0;
R40: +x18 <= 0;
R41: +x17 <= 0;
R42: +x16 <= 0;
R43: +x8 <= 0;
R44: +x2 <= 0;
R45: +x20 <= 0;
R46: +x15 <= 0;
R47: +x49 <= 0;
+x48 +x50 <= 0;
R49: +x21 <= 0;
R50: +x51 <= 0;
R51: +x21 <= 0;
R52: +x1 <= 0;
R53: +x1 <= 0;
R54: +x1 <= 0;
R55: +x1 <= 0;
R56: +x8 <= 0;
R57: +x6 <= 0;
R58: +x6 <= 0;
R59: +x22 <= 0;
R60: +x22 <= 0;
R61: +x23 <= 0;
R62: +x52 <= 0;
R63: +x23 <= 0;
R64: +x25 <= 0;
+x24 +x53 <= 0;
R66: +x10 <= 0;
+x10 +x24 <= 0;
R68: +x10 <= 0;
R69: +x25 <= 0;
R70: +x4 <= 0;
R71: +x4 <= 0;
R72: +x55 <= 0;
R73: +x54 <= 0;
R74: +x26 <= 0;
R75: +x27 <= 0;
R76: +x7 <= 0;
+x26 +x27 +x28 +x29 +x56 <= 0;
R78: +x29 <= 0;
R79: +x28 <= 0;
R80: +x57 <= 0;
R81: +x7 <= 0;
R82: +x30 <= 0;
R83: +x30 <= 0;
R84: +x11 <= 0;
R85: +x31 <= 0;
R86: +x33 <= 0;
+x31 +x32 <= 0;
R88: +x32 <= 0;
R89: +x33 <= 0;
R90: +x5 <= 0;
R91: +x59 <= 0;
R92: +x5 <= 0;
+x58 +x61 <= 0;
R94: +x60 <= 0;
R95: +x34 <= 0;
R96: +x2 <= 0;
+x34 +x35 <= 0;
R98: +x35 <= 0;
R99: +x2 <= 0;
R100: +x2 <= 0;
R101: +x62 <= 0;
R102: +x63 <= 0;
R103: +x36 <= 0;
R104: +x36 <= 0;
R105: +x3 <= 0;
0 x1 <= 1;
R107: +x3 <= 0;
R108: +x37 >= 0;
+x12 +x13 +x25 >= 0;
R110: +x11 >= 0;
R111: +x30 >= 0;
R112: +x40 >= 0;
R113: +x33 >= 0;
R114: +x38 >= 0;
R115: +x38 >= 0;
+x22 +x23 >= 0;
R117: +x42 >= 0;
R118: +x43 >= 0;
R119: +x9 >= 0;
R120: +x3 >= 0;
R121: +x4 >= 0;
R122: +x36 >= 0;
R123: +x18 >= 0;
R124: +x18 >= 0;
+x45 +x47 >= 0;
R126: +x44 >= 0;
R127: +x46 >= 0;
R128: +x19 >= 0;
R129: +x21 >= 0;
R130: +x5 >= 0;
R131: +x2 >= 0;
R132: +x2 >= 0;
R133: +x6 >= 0;
R134: +x7 >= 0;
R135: +x7 >= 0;
R136: +x1 >= 0;
R137: +x4 >= 0;
R138: +x8 >= 0;
R139: +x30 >= 0;
R140: +x33 >= 0;
R141: +x40 >= 0;
R142: +x21 >= 0;
R143: +x6 >= 0;
R144: +x9 >= 0;
R145: +x3 >= 0;
R146: +x36 >= 0;
R147: +x4 >= 0;
R148: +x43 >= 0;
R149: +x1 >= 0;
R150: +x5 >= 0;
R151: +x19 >= 0;
R152: +x42 >= 0;
R153: +x48 >= 0;
R154: +x20 >= 0;
+x49 +x51 >= 0;
R156: +x50 >= 0;
R157: +x20 >= 0;
R158: +x1 >= 0;
R159: +x1 >= 0;
R160: +x1 >= 0;
R161: +x1 >= 0;
R162: +x8 >= 0;
R163: +x6 >= 0;
R164: +x6 >= 0;
R165: +x16 >= 0;
R166: +x16 >= 0;
R167: +x52 >= 0;
R168: +x15 >= 0;
R169: +x15 >= 0;
R170: +x10 >= 0;
R171: +x14 >= 0;
+x10 +x24 +x53 >= 0;
R173: +x24 >= 0;
+x24 +x53 >= 0;
R175: +x14 >= 0;
R176: +x4 >= 0;
R177: +x54 >= 0;
R178: +x4 >= 0;
R179: +x55 >= 0;
+x26 +x27 >= 0;
+x27 +x56 >= 0;
+x26 +x28 +x29 >= 0;
R183: +x7 >= 0;
+x29 +x56 >= 0;
R185: +x28 >= 0;
R186: +x7 >= 0;
R187: +x57 >= 0;
R188: +x39 >= 0;
R189: +x39 >= 0;
R190: +x11 >= 0;
R191: +x31 >= 0;
+x31 +x32 >= 0;
R193: +x41 >= 0;
R194: +x32 >= 0;
R195: +x41 >= 0;
R196: +x5 >= 0;
R197: +x58 >= 0;
+x59 +x60 >= 0;
R199: +x5 >= 0;
R200: +x61 >= 0;
R201: +x34 >= 0;
+x34 +x35 >= 0;
R203: +x2 >= 0;
R204: +x35 >= 0;
R205: +x2 >= 0;
R206: +x2 >= 0;
R207: +x17 >= 0;
R208: +x62 >= 0;
R209: +x63 >= 0;
R210: +x17 >= 0;
R211: +x3 >= 0;
R212: +x3 >= 0;
0 x1 >= 1;
R214: +x1 >= 0;
R215: +x2 >= 0;
R216: +x3 >= 0;
R217: +x4 >= 0;
R218: +x5 >= 0;
R219: +x6 >= 0;
R220: +x7 >= 0;
R221: +x8 >= 0;
R222: +x9 >= 0;
R223: +x10 >= 0;
R224: +x11 >= 0;
R225: +x12 >= 0;
R226: +x13 >= 0;
R227: +x14 >= 0;
R228: +x15 >= 0;
R229: +x16 >= 0;
R230: +x17 >= 0;
R231: +x18 >= 0;
R232: +x19 >= 0;
R233: +x20 >= 0;
R234: +x21 >= 0;
R235: +x22 >= 0;
R236: +x23 >= 0;
R237: +x24 >= 0;
R238: +x25 >= 0;
R239: +x26 >= 0;
R240: +x27 >= 0;
R241: +x28 >= 0;
R242: +x29 >= 0;
R243: +x30 >= 0;
R244: +x31 >= 0;
R245: +x32 >= 0;
R246: +x33 >= 0;
R247: +x34 >= 0;
R248: +x35 >= 0;
R249: +x36 >= 0;
R250: +x37 >= 0;
R251: +x38 >= 0;
R252: +x39 >= 0;
R253: +x40 >= 0;
R254: +x41 >= 0;
R255: +x42 >= 0;
R256: +x43 >= 0;
R257: +x44 >= 0;
R258: +x45 >= 0;
R259: +x46 >= 0;
R260: +x47 >= 0;
R261: +x48 >= 0;
R262: +x49 >= 0;
R263: +x50 >= 0;
R264: +x51 >= 0;
R265: +x52 >= 0;
R266: +x53 >= 0;
R267: +x54 >= 0;
R268: +x55 >= 0;
R269: +x56 >= 0;
R270: +x57 >= 0;
R271: +x58 >= 0;
R272: +x59 >= 0;
R273: +x60 >= 0;
R274: +x61 >= 0;
R275: +x62 >= 0;
R276: +x63 >= 0;
